Normalized Data/p02_1090_tsplib0_normalized_splitx10_0.vrp
NAME:p02_1090_tsplib0_NORMALIZED_splitx10_
BEST_KNOWN: 0
COMMENT: 0
DIMENSION: 384
CAPACITY: 1000
EDGE_WEIGHT_FORMAT: FUNCTION
EDGE_WEIGHT_TYPE: EXACT_2D
NODE_COORD_SECTION
1 0.00000 0.00000
2 -18 -18
3 -18 -18
4 -18 -18
5 -18 -18
6 -18 -18
7 -18 -18
8 -18 -18
9 -4 -14
10 -4 -14
11 -4 -14
12 -19 5
13 -19 5
14 -19 5
15 -19 5
16 5 -5
17 5 -5
18 5 -5
19 5 -5
20 5 -5
21 5 -5
22 5 -5
23 15 -20
24 15 -20
25 15 -20
26 15 -20
27 15 -20
28 15 -20
29 -7 -6
30 -7 -6
31 -7 -6
32 -7 -6
33 -7 -6
34 -7 -6
35 -7 -6
36 -7 -6
37 10 10
38 10 10
39 10 10
40 10 10
41 10 10
42 10 10
43 10 10
44 15 5
45 15 5
46 15 5
47 15 5
48 15 5
49 -14 19
50 -14 19
51 -14 19
52 0 26
53 0 26
54 0 26
55 15 25
56 15 25
57 15 25
58 15 25
59 15 25
60 15 25
61 15 25
62 15 25
63 -5 11
64 -5 11
65 -5 11
66 22 -5
67 22 -5
68 22 -5
69 22 -5
70 22 -5
71 22 17
72 22 17
73 22 17
74 22 17
75 22 -16
76 22 -16
77 22 -16
78 22 -16
79 -19 -4
80 -19 -4
81 -19 -4
82 -19 -4
83 -19 -4
84 -7 4
85 -7 4
86 -7 4
87 -31 16
88 -31 16
89 -31 16
90 22 8
91 22 8
92 22 8
93 22 8
94 22 8
95 22 8
96 22 8
97 26 -26
98 26 -26
99 26 -26
100 26 -26
101 26 -26
102 26 -26
103 4 -27
104 4 -27
105 4 -27
106 4 -27
107 -14 -27
108 -14 -27
109 -14 -27
110 -29 -12
111 -29 -12
112 -29 -12
113 -29 -12
114 -29 -12
115 -33 3
116 -33 3
117 -33 3
118 -33 3
119 -33 3
120 -23 24
121 -23 24
122 -23 24
123 -23 24
124 -23 24
125 -23 24
126 1 6
127 1 6
128 1 6
129 1 6
130 1 6
131 1 6
132 1 6
133 15 -6
134 15 -6
135 15 -6
136 -5 -24
137 -5 -24
138 -5 -24
139 -5 -24
140 -5 -24
141 12 -14
142 12 -14
143 3 -14
144 3 -14
145 3 -14
146 3 -14
147 -9 36
148 -9 36
149 -9 36
150 -9 36
151 -9 36
152 -9 36
153 -9 36
154 -18 13
155 -18 13
156 -18 13
157 -18 13
158 -18 13
159 -18 13
160 -18 13
161 -14 -11
162 -14 -11
163 -14 -11
164 -14 -11
165 -14 -11
166 10 0
167 10 0
168 10 0
169 10 0
170 15 10
171 15 10
172 15 10
173 15 10
174 15 10
175 15 10
176 15 10
177 14 -30
178 14 -30
179 14 -30
180 14 -30
181 14 -30
182 20 -25
183 20 -25
184 20 -25
185 20 -25
186 20 -25
187 20 -25
188 7 26
189 7 26
190 7 26
191 7 26
192 7 26
193 7 26
194 -10 20
195 -10 20
196 -10 20
197 -10 20
198 -10 20
199 -10 20
200 -10 10
201 -10 10
202 -10 10
203 -10 10
204 -10 10
205 -10 10
206 -28 -23
207 -28 -23
208 -25 -26
209 -25 -26
210 -24 -21
211 -24 -21
212 -24 -21
213 -19 8
214 -19 8
215 -19 8
216 -19 8
217 -19 8
218 10 -10
219 10 -10
220 10 -10
221 10 -10
222 11 2
223 11 2
224 11 2
225 11 2
226 10 -25
227 10 -25
228 10 -25
229 10 -25
230 10 -25
231 10 -25
232 10 -25
233 8 -19
234 8 -19
235 8 -19
236 8 -19
237 8 -19
238 8 -19
239 -28 -2
240 -28 -2
241 -28 -2
242 -28 -2
243 -28 -2
244 -28 -2
245 -28 -2
246 -25 16
247 -25 16
248 -25 16
249 -25 16
250 -25 16
251 -25 16
252 -25 16
253 -25 16
254 -11 -1
255 -11 -1
256 -11 -1
257 -11 -1
258 -11 -1
259 14 -2
260 14 -2
261 14 -2
262 14 -2
263 14 -2
264 15 17
265 15 17
266 27 1
267 27 1
268 27 1
269 27 1
270 27 1
271 27 1
272 -30 30
273 -30 30
274 -30 30
275 -30 30
276 -30 30
277 -30 30
278 -30 30
279 -30 30
280 -34 -15
281 -34 -15
282 -34 -15
283 -34 -15
284 -34 -15
285 -34 -15
286 25 -13
287 25 -13
288 25 -13
289 25 -13
290 25 -13
291 25 -13
292 0 20
293 0 20
294 0 20
295 0 20
296 30 24
297 30 24
298 30 24
299 30 24
300 24 -36
301 24 -36
302 24 -36
303 24 -36
304 -4 -34
305 -4 -34
306 -4 -34
307 -4 -34
308 -10 -20
309 -10 -20
310 -20 -10
311 -20 -10
312 -20 -10
313 -25 -35
314 -25 -35
315 -25 -35
316 -25 -35
317 -25 -35
318 10 30
319 10 30
320 10 30
321 10 30
322 10 30
323 17 32
324 17 32
325 17 32
326 17 32
327 17 32
328 5 2
329 5 2
330 5 2
331 5 2
332 5 2
333 5 2
334 5 2
335 -2 -7
336 -2 -7
337 -2 -7
338 -2 -7
339 10 -36
340 10 -36
341 10 -36
342 10 -36
343 10 -36
344 10 -36
345 10 -36
346 10 -36
347 26 -32
348 26 -32
349 26 -32
350 26 -32
351 26 -32
352 26 -32
353 26 -32
354 26 -32
355 19 -35
356 19 -35
357 19 -35
358 19 -35
359 19 -35
360 -5 20
361 -5 20
362 -5 20
363 -5 20
364 -5 20
365 -13 -16
366 -13 -16
367 -13 -16
368 -13 -16
369 -13 -16
370 -13 -16
371 -13 -16
372 0 -20
373 0 -20
374 0 -20
375 0 -20
376 0 -20
377 0 -20
378 0 -20
379 0 -20
380 0 -20
381 0 -3
382 0 -3
383 0 -3
384 0 -3
DEMAND_SECTION
1 0
2 200
3 200
4 200
5 100
6 50
7 10
8 10
9 200
10 200
11 10
12 200
13 50
14 10
15 10
16 200
17 200
18 100
19 10
20 10
21 10
22 10
23 200
24 200
25 200
26 200
27 10
28 10
29 200
30 200
31 200
32 100
33 50
34 10
35 10
36 10
37 200
38 200
39 50
40 10
41 10
42 10
43 10
44 100
45 50
46 10
47 10
48 10
49 200
50 50
51 10
52 100
53 10
54 10
55 200
56 200
57 200
58 100
59 10
60 10
61 10
62 10
63 200
64 200
65 10
66 200
67 200
68 50
69 10
70 10
71 200
72 200
73 100
74 10
75 200
76 200
77 200
78 50
79 200
80 100
81 10
82 10
83 10
84 100
85 50
86 10
87 200
88 200
89 100
90 200
91 200
92 200
93 100
94 50
95 10
96 10
97 200
98 200
99 100
100 10
101 10
102 10
103 100
104 50
105 10
106 10
107 200
108 200
109 200
110 200
111 200
112 200
113 10
114 10
115 200
116 200
117 100
118 50
119 10
120 200
121 200
122 200
123 100
124 10
125 10
126 200
127 200
128 200
129 50
130 10
131 10
132 10
133 100
134 10
135 10
136 200
137 200
138 200
139 100
140 10
141 200
142 10
143 100
144 50
145 10
146 10
147 200
148 200
149 200
150 100
151 50
152 10
153 10
154 200
155 200
156 200
157 100
158 10
159 10
160 10
161 200
162 200
163 200
164 100
165 50
166 200
167 50
168 10
169 10
170 200
171 200
172 200
173 100
174 50
175 10
176 10
177 200
178 200
179 50
180 10
181 10
182 200
183 200
184 200
185 100
186 10
187 10
188 200
189 200
190 50
191 10
192 10
193 10
194 200
195 200
196 50
197 10
198 10
199 10
200 200
201 200
202 200
203 100
204 50
205 10
206 200
207 50
208 100
209 50
210 200
211 200
212 200
213 200
214 200
215 200
216 10
217 10
218 200
219 200
220 200
221 200
222 200
223 100
224 10
225 10
226 200
227 200
228 50
229 10
230 10
231 10
232 10
233 200
234 200
235 10
236 10
237 10
238 10
239 200
240 200
241 200
242 100
243 50
244 10
245 10
246 200
247 200
248 100
249 50
250 10
251 10
252 10
253 10
254 200
255 200
256 200
257 10
258 10
259 200
260 200
261 200
262 10
263 10
264 100
265 50
266 200
267 200
268 200
269 200
270 10
271 10
272 200
273 200
274 200
275 50
276 10
277 10
278 10
279 10
280 200
281 200
282 200
283 50
284 10
285 10
286 200
287 100
288 10
289 10
290 10
291 10
292 200
293 200
294 200
295 50
296 200
297 200
298 10
299 10
300 200
301 100
302 50
303 10
304 200
305 200
306 200
307 200
308 200
309 100
310 200
311 100
312 50
313 200
314 100
315 10
316 10
317 10
318 200
319 100
320 50
321 10
322 10
323 200
324 200
325 50
326 10
327 10
328 200
329 200
330 200
331 100
332 50
333 10
334 10
335 100
336 50
337 10
338 10
339 200
340 200
341 200
342 200
343 50
344 10
345 10
346 10
347 200
348 200
349 200
350 100
351 50
352 10
353 10
354 10
355 200
356 200
357 200
358 200
359 50
360 200
361 200
362 200
363 200
364 10
365 200
366 200
367 200
368 100
369 50
370 10
371 10
372 200
373 200
374 200
375 200
376 50
377 10
378 10
379 10
380 10
381 100
382 10
383 10
384 10
DEPOT_SECTION
1
-1
EOF