Normalized Data/p02_1090_tsplib0_normalized_splitx10_0.sol
383 -9 304 305 306 303 -12 11 13 14 214 215 213 216 212 83 85 -15 19 17 262 260 221 165 166 167 168 -16 220 218 217 219 -18 21 20 100 98 99 96 101 97 352 300 299 302 301 -22 25 24 23 140 -27 26 181 183 184 176 177 179 178 180 -33 163 2 3 4 7 6 1 5 367 -35 28 30 31 34 32 29 334 336 380 383 381 -36 42 264 263 60 59 61 58 54 56 55 -38 40 298 297 295 296 72 70 73 71 -39 41 37 173 172 175 169 170 171 174 -47 46 44 45 43 95 89 93 94 91 92 90 -48 49 50 123 121 120 119 124 122 204 -57 324 326 323 322 325 319 318 321 317 320 189 191 -62 200 203 202 199 201 84 -63 362 359 361 360 -64 195 196 198 193 197 194 156 153 155 157 -77 76 75 74 289 286 290 285 288 287 -79 110 113 112 284 282 280 281 279 283 -81 80 82 78 244 238 242 243 239 241 240 -87 86 88 251 248 246 252 250 158 159 154 -102 104 342 341 338 339 344 343 345 340 -108 107 106 315 314 316 312 313 -109 111 115 118 117 114 116 -130 129 125 127 128 126 131 -133 134 132 66 67 65 68 69 258 259 261 -135 139 138 137 136 8 10 335 337 -141 346 348 351 349 350 353 347 185 186 182 -142 377 373 371 375 372 374 378 376 379 382 -145 144 143 105 103 358 354 357 355 356 -162 160 161 164 311 310 309 -192 188 187 190 53 51 52 294 292 293 -208 207 206 205 209 210 211 -224 223 222 266 269 268 270 267 265 -227 230 231 228 229 226 225 233 237 236 234 235 232 -247 245 249 273 272 278 271 276 275 277 274 -254 255 253 257 256 -291 147 149 152 148 146 151 150 363 -308 307 368 364 366 370 365 369 -328 327 332 333 329 330 331 0 





OBJ=
2307.999
BEST_KNOWN=
0.000